c 
c G(n,p) graph
c graph gen seed     : 6810
c number of vertices : 70
c max number of edges: 2415
c edge probability   : 0.200000
c data structure     : sparse
c
c           Graph Stats
c number of vertices  : 70
c nonisolated vertices: 70
c number of edges     : 457
c edge density        : 0.189234
c max degree          : 23
c avg degree          : 13.06
c min degree          : 6
p col 70 457
e 1 67
e 1 66
e 1 65
e 1 63
e 1 48
e 1 46
e 1 45
e 1 33
e 1 20
e 1 15
e 1 13
e 1 9
e 1 4
e 2 60
e 2 45
e 2 44
e 2 39
e 2 36
e 2 34
e 2 32
e 2 28
e 2 17
e 2 11
e 3 55
e 3 51
e 3 40
e 3 35
e 3 32
e 3 29
e 3 26
e 3 24
e 3 21
e 3 19
e 3 12
e 3 10
e 3 5
e 4 62
e 4 59
e 4 54
e 4 53
e 4 48
e 4 47
e 4 44
e 4 38
e 4 35
e 4 32
e 4 31
e 4 29
e 4 28
e 4 23
e 4 11
e 4 10
e 5 65
e 5 61
e 5 57
e 5 56
e 5 51
e 5 49
e 5 42
e 5 40
e 5 39
e 5 26
e 5 22
e 5 17
e 5 16
e 5 14
e 5 8
e 5 6
e 6 70
e 6 68
e 6 63
e 6 56
e 6 53
e 6 51
e 6 46
e 6 42
e 6 40
e 6 36
e 6 35
e 6 33
e 6 27
e 6 26
e 6 24
e 6 7
e 7 69
e 7 66
e 7 63
e 7 62
e 7 41
e 7 37
e 7 20
e 7 9
e 8 67
e 8 63
e 8 55
e 8 50
e 8 48
e 8 47
e 8 44
e 8 43
e 8 41
e 8 34
e 8 30
e 8 28
e 8 27
e 8 18
e 9 69
e 9 66
e 9 65
e 9 47
e 9 28
e 9 24
e 9 15
e 9 14
e 9 13
e 9 10
e 10 67
e 10 62
e 10 58
e 10 51
e 10 50
e 10 49
e 10 47
e 10 45
e 10 37
e 10 25
e 11 69
e 11 64
e 11 61
e 11 56
e 11 52
e 11 51
e 11 49
e 11 42
e 11 38
e 11 37
e 11 36
e 11 35
e 11 26
e 11 25
e 11 23
e 11 13
e 11 12
e 12 69
e 12 68
e 12 66
e 12 61
e 12 59
e 12 52
e 12 45
e 12 39
e 12 34
e 12 32
e 12 24
e 12 14
e 12 13
e 13 68
e 13 64
e 13 63
e 13 62
e 13 46
e 13 45
e 13 43
e 13 42
e 13 40
e 13 34
e 13 33
e 13 31
e 13 30
e 13 26
e 13 24
e 13 22
e 13 20
e 13 19
e 13 18
e 14 63
e 14 55
e 14 49
e 14 47
e 14 45
e 14 41
e 14 21
e 14 19
e 15 61
e 15 41
e 15 34
e 15 30
e 15 25
e 15 19
e 15 17
e 15 16
e 16 69
e 16 67
e 16 59
e 16 48
e 16 42
e 16 33
e 16 29
e 16 28
e 16 25
e 16 24
e 16 17
e 17 70
e 17 56
e 17 55
e 17 52
e 17 50
e 17 44
e 17 31
e 17 24
e 18 65
e 18 64
e 18 56
e 18 53
e 18 22
e 18 19
e 19 70
e 19 63
e 19 60
e 19 54
e 19 53
e 19 46
e 19 45
e 19 43
e 19 41
e 19 37
e 19 29
e 19 27
e 19 25
e 19 24
e 20 69
e 20 68
e 20 52
e 20 51
e 20 47
e 20 46
e 20 45
e 20 30
e 20 26
e 20 23
e 21 64
e 21 63
e 21 58
e 21 44
e 21 39
e 21 35
e 21 24
e 22 68
e 22 62
e 22 61
e 22 50
e 22 46
e 22 40
e 22 38
e 22 35
e 22 30
e 22 27
e 23 59
e 23 53
e 23 49
e 23 47
e 23 45
e 23 25
e 24 70
e 24 68
e 24 66
e 24 64
e 24 62
e 24 54
e 24 50
e 24 44
e 24 40
e 24 36
e 24 30
e 24 29
e 25 70
e 25 64
e 25 60
e 25 59
e 25 54
e 25 52
e 25 48
e 25 42
e 25 33
e 25 28
e 26 70
e 26 63
e 26 57
e 26 49
e 26 44
e 26 38
e 26 33
e 27 65
e 27 62
e 27 59
e 27 50
e 27 40
e 27 36
e 27 32
e 28 69
e 28 67
e 28 63
e 28 61
e 28 44
e 28 42
e 28 39
e 28 30
e 29 67
e 29 62
e 29 49
e 29 48
e 29 42
e 29 41
e 29 39
e 29 36
e 29 32
e 30 70
e 30 67
e 30 66
e 30 61
e 30 60
e 30 54
e 30 53
e 30 52
e 30 51
e 30 50
e 30 49
e 30 47
e 30 45
e 30 40
e 30 32
e 31 64
e 31 62
e 31 54
e 31 52
e 31 48
e 31 46
e 31 40
e 31 32
e 32 70
e 32 67
e 32 65
e 32 59
e 32 57
e 32 53
e 32 43
e 32 41
e 33 64
e 33 58
e 33 55
e 33 54
e 33 49
e 33 47
e 33 43
e 33 40
e 33 36
e 34 67
e 34 63
e 34 62
e 34 60
e 34 57
e 34 50
e 34 48
e 34 36
e 35 59
e 35 57
e 36 67
e 36 62
e 36 61
e 37 62
e 37 54
e 37 52
e 37 48
e 37 44
e 37 43
e 38 65
e 38 56
e 38 39
e 39 67
e 39 58
e 39 42
e 40 70
e 40 51
e 40 50
e 40 49
e 40 46
e 41 68
e 41 58
e 41 52
e 41 51
e 41 43
e 42 59
e 42 53
e 43 69
e 43 62
e 43 54
e 43 52
e 44 70
e 44 69
e 44 68
e 44 66
e 44 61
e 44 56
e 44 51
e 44 46
e 45 58
e 45 55
e 46 69
e 46 62
e 46 61
e 46 59
e 46 51
e 47 68
e 47 65
e 47 60
e 47 52
e 47 50
e 48 66
e 48 64
e 48 62
e 48 61
e 48 55
e 48 51
e 49 69
e 49 67
e 49 59
e 49 57
e 50 69
e 50 66
e 50 65
e 51 67
e 51 62
e 52 67
e 53 62
e 53 60
e 53 59
e 54 59
e 54 57
e 55 64
e 55 63
e 56 63
e 56 57
e 57 68
e 57 67
e 59 69
e 60 68
e 60 64
e 60 61
e 62 70
e 62 68
e 62 65
e 62 64
e 63 70
e 63 66
e 65 66
e 67 69
e 68 70
